# Objective value = 1.4173420586031878e+03
allocVar_j_0_k_0 1
allocVar_j_0_k_1 0
allocVar_j_0_k_2 0
allocVar_j_1_k_0 1
allocVar_j_1_k_1 0
allocVar_j_1_k_2 0
allocVar_j_2_k_0 0
allocVar_j_2_k_1 1
allocVar_j_2_k_2 0
cum_prob_j_0_k_0_s_0 3.6899954571011580e+02
cum_prob_j_0_k_0_s_1 2.1847815215997944e+03
cum_prob_j_0_k_0_s_2 2.1374643576635244e+03
cum_prob_j_0_k_0_s_3 3.6370229597006128e+03
cum_prob_j_0_k_0_s_4 0
cum_prob_j_0_k_0_s_5 0
cum_prob_j_0_k_0_s_6 0
cum_prob_j_0_k_0_s_7 0
cum_prob_j_0_k_1_s_0 0
cum_prob_j_0_k_1_s_1 0
cum_prob_j_0_k_1_s_2 0
cum_prob_j_0_k_1_s_3 0
cum_prob_j_0_k_1_s_4 0
cum_prob_j_0_k_1_s_5 0
cum_prob_j_0_k_1_s_6 0
cum_prob_j_0_k_1_s_7 0
cum_prob_j_0_k_2_s_0 0
cum_prob_j_0_k_2_s_1 0
cum_prob_j_0_k_2_s_2 0
cum_prob_j_0_k_2_s_3 0
cum_prob_j_0_k_2_s_4 0
cum_prob_j_0_k_2_s_5 0
cum_prob_j_0_k_2_s_6 0
cum_prob_j_0_k_2_s_7 0
cum_prob_j_1_k_0_s_0 3.6899954571011580e+02
cum_prob_j_1_k_0_s_1 2.1847815215997953e+03
cum_prob_j_1_k_0_s_2 2.1374643576635246e-04
cum_prob_j_1_k_0_s_3 3.6370229597006165e-04
cum_prob_j_1_k_0_s_4 0
cum_prob_j_1_k_0_s_5 0
cum_prob_j_1_k_0_s_6 0
cum_prob_j_1_k_0_s_7 0
cum_prob_j_1_k_1_s_0 0
cum_prob_j_1_k_1_s_1 0
cum_prob_j_1_k_1_s_2 0
cum_prob_j_1_k_1_s_3 0
cum_prob_j_1_k_1_s_4 0
cum_prob_j_1_k_1_s_5 0
cum_prob_j_1_k_1_s_6 0
cum_prob_j_1_k_1_s_7 0
cum_prob_j_1_k_2_s_0 0
cum_prob_j_1_k_2_s_1 0
cum_prob_j_1_k_2_s_2 0
cum_prob_j_1_k_2_s_3 0
cum_prob_j_1_k_2_s_4 0
cum_prob_j_1_k_2_s_5 0
cum_prob_j_1_k_2_s_6 0
cum_prob_j_1_k_2_s_7 0
cum_prob_j_2_k_0_s_0 0
cum_prob_j_2_k_0_s_1 0
cum_prob_j_2_k_0_s_2 1.8899622535387128e-14
cum_prob_j_2_k_0_s_3 0
cum_prob_j_2_k_0_s_4 0
cum_prob_j_2_k_0_s_5 0
cum_prob_j_2_k_0_s_6 0
cum_prob_j_2_k_0_s_7 0
cum_prob_j_2_k_1_s_0 1.5595755866353090e+02
cum_prob_j_2_k_1_s_1 1.2613841996161643e+03
cum_prob_j_2_k_1_s_2 9.0339873530337898e-05
cum_prob_j_2_k_1_s_3 2.0998361850004988e-04
cum_prob_j_2_k_1_s_4 4.8049711359723731e-14
cum_prob_j_2_k_1_s_5 1.3127425272378465e-13
cum_prob_j_2_k_1_s_6 5.2409912347010065e-15
cum_prob_j_2_k_1_s_7 1.0041736812836034e-14
cum_prob_j_2_k_2_s_0 0
cum_prob_j_2_k_2_s_1 0
cum_prob_j_2_k_2_s_2 0
cum_prob_j_2_k_2_s_3 0
cum_prob_j_2_k_2_s_4 0
cum_prob_j_2_k_2_s_5 0
cum_prob_j_2_k_2_s_6 0
cum_prob_j_2_k_2_s_7 0
